letting n_nurses=25
letting n_days=7
letting n_shift_types=4
letting max_covers=11
letting t_covers=87
letting covers=[7,9,0,0,6,11,0,0,10,6,0,0,10,7,0,0,6,8,0,0,3,0,3,0,1,0,0,0]
letting prefes=[1,3,3,1,1,4,1,4,1,3,3,1,1,4,1,4,1,3,3,1,1,4,1,4,1,4,1,4,2,3,3,2,1,4,1,4,2,3,3,2,1,4,1,4,2,3,3,2,1,4,1,4,1,4,1,4,1,3,3,1,1,4,1,4,1,3,3,1,1,4,1,4,1,3,3,1,1,4,1,4,1,4,1,4,2,2,2,2,1,4,1,4,2,2,2,2,1,4,1,4,2,2,2,2,1,4,1,4,1,4,1,4,2,2,2,2,1,4,1,4,2,2,2,2,1,4,1,4,2,2,2,2,1,4,1,4,1,4,1,4,2,3,3,2,1,1,4,1,2,3,3,2,1,1,4,1,2,3,3,2,1,1,4,1,1,1,4,1,1,3,3,1,1,4,4,4,1,3,3,1,1,4,4,4,1,3,3,1,1,4,4,4,1,4,4,4,2,3,3,2,1,1,1,1,2,3,3,2,1,1,1,1,2,3,3,2,1,1,1,1,1,1,1,1,2,3,3,2,1,4,1,4,2,3,3,2,1,4,1,4,2,3,3,2,1,4,1,4,1,4,1,4,2,3,3,2,1,1,1,1,2,3,3,2,1,1,1,1,2,3,3,2,1,1,1,1,1,1,1,1,1,3,3,1,1,4,1,4,1,3,3,1,1,4,1,4,1,3,3,1,1,4,1,4,1,4,1,4,2,2,2,2,4,4,1,4,2,2,2,2,4,4,1,4,2,2,2,2,4,4,1,4,4,4,1,4,2,2,2,2,1,4,1,4,2,2,2,2,1,4,1,4,2,2,2,2,1,4,1,4,1,4,1,4,2,3,3,2,1,1,1,1,2,3,3,2,1,1,1,1,2,3,3,2,1,1,1,1,1,1,1,1,2,3,3,2,4,4,4,4,2,3,3,2,4,4,4,4,2,3,3,2,4,4,4,4,4,4,4,4,2,3,3,2,4,4,1,4,2,3,3,2,4,4,1,4,2,3,3,2,4,4,1,4,4,4,1,4,2,3,3,2,1,1,1,1,2,3,3,2,1,1,1,1,2,3,3,2,1,1,1,1,1,1,1,1,2,3,3,2,1,4,1,4,2,3,3,2,1,4,1,4,2,3,3,2,1,4,1,4,1,4,1,4,2,3,3,2,1,4,4,4,2,3,3,2,1,4,4,4,2,3,3,2,1,4,4,4,1,4,4,4,2,3,3,2,1,4,1,4,2,3,3,2,1,4,1,4,2,3,3,2,1,4,1,4,1,4,1,4,2,2,2,2,1,4,1,4,2,2,2,2,1,4,1,4,2,2,2,2,1,4,1,4,1,4,1,4,2,3,3,2,1,4,1,4,2,3,3,2,1,4,1,4,2,3,3,2,1,4,1,4,1,4,1,4,2,3,3,2,1,4,1,4,2,3,3,2,1,4,1,4,2,3,3,2,1,4,1,4,1,4,1,4,1,3,3,1,4,4,4,4,1,3,3,1,4,4,4,4,1,3,3,1,4,4,4,4,4,4,4,4,2,3,3,2,4,4,1,4,2,3,3,2,4,4,1,4,2,3,3,2,4,4,1,4,4,4,1,4]
letting ub =  349
